RobustCbss/GLKH-1.1/TMP/mtspf.pid12059.atsp
NAME : mtspf.pid12059.gtsp
TYPE : ATSP
DIMENSION : 27
EDGE_WEIGHT_TYPE : EXPLICIT
EDGE_WEIGHT_FORMAT : FULL_MATRIX
EDGE_WEIGHT_SECTION
999999 5368709 5368709 5368732 5368731 5368730 5368731 5368741 5368740 5368739 5368740 5368714 5368715 5368716 5368715 5368731 5368732 5368733 5368732 5368730 5368731 5368732 5368731 5368728 5368727 5368726 5368727 
5368709 999999 5368709 5368727 5368728 5368727 5368726 5368726 5368727 5368726 5368725 5368739 5368740 5368741 5368740 5368746 5368747 5368746 5368745 5368745 5368746 5368745 5368744 5368723 5368724 5368725 5368724 
5368709 5368709 999999 5368743 5368742 5368741 5368742 5368752 5368751 5368750 5368751 5368723 5368722 5368721 5368722 5368732 5368731 5368730 5368731 5368739 5368738 5368737 5368738 5368739 5368738 5368737 5368738 
5368709 5368709 5368709 999999 0 10737418 10737418 5368721 5368722 5368721 5368720 5368730 5368731 5368732 5368731 5368731 5368732 5368731 5368730 5368730 5368731 5368730 5368729 5368724 5368723 5368722 5368723 
5368709 5368709 5368709 10737418 999999 0 10737418 5368720 5368721 5368720 5368719 5368731 5368732 5368733 5368732 5368730 5368731 5368732 5368731 5368729 5368730 5368731 5368730 5368723 5368722 5368723 5368724 
5368709 5368709 5368709 10737418 10737418 999999 0 5368721 5368720 5368719 5368720 5368732 5368731 5368732 5368733 5368729 5368730 5368731 5368730 5368728 5368729 5368730 5368729 5368724 5368723 5368724 5368725 
5368709 5368709 5368709 0 10737418 10737418 999999 5368722 5368721 5368720 5368721 5368731 5368730 5368731 5368732 5368730 5368731 5368730 5368729 5368729 5368730 5368729 5368728 5368725 5368724 5368723 5368724 
5368709 5368709 5368709 5368719 5368720 5368721 5368720 999999 0 10737418 10737418 5368739 5368740 5368741 5368740 5368730 5368731 5368732 5368731 5368731 5368732 5368731 5368730 5368723 5368724 5368725 5368724 
5368709 5368709 5368709 5368720 5368721 5368722 5368721 10737418 999999 0 10737418 5368740 5368741 5368742 5368741 5368731 5368732 5368733 5368732 5368730 5368731 5368732 5368731 5368724 5368725 5368726 5368725 
5368709 5368709 5368709 5368721 5368720 5368721 5368722 10737418 10737418 999999 0 5368741 5368740 5368741 5368742 5368730 5368731 5368732 5368731 5368729 5368730 5368731 5368730 5368725 5368724 5368725 5368726 
5368709 5368709 5368709 5368720 5368719 5368720 5368721 0 10737418 10737418 999999 5368740 5368739 5368740 5368741 5368729 5368730 5368731 5368730 5368730 5368731 5368730 5368729 5368724 5368723 5368724 5368725 
5368709 5368709 5368709 5368732 5368733 5368732 5368731 5368741 5368742 5368741 5368740 999999 0 10737418 10737418 5368729 5368730 5368729 5368728 5368728 5368729 5368728 5368727 5368728 5368729 5368728 5368727 
5368709 5368709 5368709 5368731 5368732 5368731 5368730 5368740 5368741 5368740 5368739 10737418 999999 0 10737418 5368728 5368729 5368730 5368729 5368727 5368728 5368727 5368726 5368727 5368728 5368727 5368726 
5368709 5368709 5368709 5368732 5368731 5368730 5368731 5368741 5368740 5368739 5368740 10737418 10737418 999999 0 5368727 5368728 5368729 5368728 5368726 5368727 5368726 5368725 5368728 5368727 5368726 5368727 
5368709 5368709 5368709 5368733 5368732 5368731 5368732 5368742 5368741 5368740 5368741 0 10737418 10737418 999999 5368728 5368729 5368728 5368727 5368727 5368728 5368727 5368726 5368729 5368728 5368727 5368728 
5368709 5368709 5368709 5368731 5368730 5368729 5368730 5368732 5368731 5368730 5368731 5368729 5368728 5368727 5368728 999999 0 10737418 10737418 5368719 5368720 5368719 5368718 5368743 5368742 5368741 5368742 
5368709 5368709 5368709 5368730 5368729 5368730 5368731 5368731 5368730 5368729 5368730 5368728 5368727 5368728 5368729 10737418 999999 0 10737418 5368718 5368719 5368718 5368717 5368742 5368741 5368742 5368743 
5368709 5368709 5368709 5368731 5368730 5368731 5368732 5368732 5368731 5368730 5368731 5368729 5368728 5368729 5368730 10737418 10737418 999999 0 5368719 5368718 5368717 5368718 5368743 5368742 5368743 5368744 
5368709 5368709 5368709 5368732 5368731 5368730 5368731 5368733 5368732 5368731 5368732 5368730 5368729 5368728 5368729 0 10737418 10737418 999999 5368720 5368719 5368718 5368719 5368744 5368743 5368742 5368743 
5368709 5368709 5368709 5368730 5368729 5368728 5368729 5368731 5368730 5368729 5368730 5368726 5368725 5368726 5368727 5368717 5368718 5368719 5368718 999999 0 10737418 10737418 5368742 5368741 5368740 5368741 
5368709 5368709 5368709 5368729 5368728 5368729 5368730 5368730 5368729 5368730 5368731 5368727 5368726 5368727 5368728 5368718 5368719 5368720 5368719 10737418 999999 0 10737418 5368741 5368740 5368741 5368742 
5368709 5368709 5368709 5368730 5368729 5368730 5368731 5368731 5368730 5368731 5368732 5368728 5368727 5368728 5368729 5368719 5368718 5368719 5368720 10737418 10737418 999999 0 5368742 5368741 5368742 5368743 
5368709 5368709 5368709 5368731 5368730 5368729 5368730 5368732 5368731 5368730 5368731 5368727 5368726 5368727 5368728 5368718 5368717 5368718 5368719 0 10737418 10737418 999999 5368743 5368742 5368741 5368742 
5368709 5368709 5368709 5368724 5368725 5368724 5368723 5368725 5368726 5368725 5368724 5368726 5368727 5368728 5368727 5368743 5368744 5368743 5368742 5368742 5368743 5368742 5368741 999999 0 10737418 10737418 
5368709 5368709 5368709 5368723 5368724 5368725 5368724 5368724 5368725 5368724 5368723 5368727 5368728 5368729 5368728 5368742 5368743 5368744 5368743 5368741 5368742 5368743 5368742 10737418 999999 0 10737418 
5368709 5368709 5368709 5368722 5368723 5368724 5368723 5368725 5368724 5368723 5368724 5368728 5368727 5368728 5368729 5368741 5368742 5368743 5368742 5368740 5368741 5368742 5368741 10737418 10737418 999999 0 
5368709 5368709 5368709 5368723 5368724 5368723 5368722 5368726 5368725 5368724 5368725 5368727 5368726 5368727 5368728 5368742 5368743 5368742 5368741 5368741 5368742 5368741 5368740 0 10737418 10737418 999999 
EOF
