GLKH-1.1/TMP/mtspf.pid12059.tour
NAME : mtspf.pid12059.gtsp.48318449.tour
COMMENT : Length = 48318449
COMMENT : Found by LKH [Keld Helsgaun] Tue Mar  4 18:51:49 2025
TYPE : TOUR
DIMENSION : 27
TOUR_SECTION
1
12
13
14
15
19
16
17
18
22
23
20
21
2
24
25
26
27
7
4
5
6
10
11
8
9
3
-1
EOF
